data/instances/vrp_files/train_15.vrp
NAME : 15
COMMENT : Generated instance No. 15
TYPE : CVRP
DIMENSION : 21
EDGE_WEIGHT_TYPE : EUC_2D
CAPACITY : 30
NODE_COORD_SECTION
 1 830 345
 2 897 526
 3 800 978
 4 839 866
 5 407 551
 6 253 196
 7 505 595
 8 339 569
 9 887 556
 10 720 805
 11 988 603
 12 806 962
 13 944 141
 14 406 323
 15 86 633
 16 735 848
 17 122 876
 18 642 703
 19 910 624
 20 335 825
 21 363 34
DEMAND_SECTION
1 0
2 9
3 2
4 5
5 3
6 4
7 10
8 6
9 8
10 1
11 10
12 8
13 7
14 1
15 2
16 3
17 1
18 9
19 8
20 2
21 9
DEPOT_SECTION
 1
 -1
EOF